
<<< setup


<<< generate

CPXPARAM_Simplex_Tolerances_Optimality           0.001
CPXPARAM_Simplex_Tolerances_Feasibility          0.001
CPXPARAM_TimeLimit                               3600
CPXPARAM_Threads                                 8
CPXPARAM_MIP_Tolerances_AbsMIPGap                0.001
CPXPARAM_MIP_Tolerances_MIPGap                   0.001
CPXPARAM_MIP_Tolerances_Integrality              0.001
CPXPARAM_MIP_Display                             4
CPXPARAM_MIP_PolishAfter_Solutions               1
Tried aggregator 1 time.
MIQCP Presolve eliminated 2 rows and 2 columns.
Reduced MIQCP has 71 rows, 263 columns, and 2349 nonzeros.
Reduced MIQCP has 0 binaries, 32 generals, 0 SOSs, and 0 indicators.
Reduced MIQCP has 4 quadratic constraints.
Presolve time = 0.00 sec. (0.67 ticks)
MIP emphasis: balance optimality and feasibility.
MIP search method: dynamic search.
Parallel mode: deterministic, using up to 8 threads.
Dual infeasible due to empty column 'x(2)'.
Presolve time = 0.00 sec. (0.10 ticks)
Tried aggregator 1 time.
LP Presolve eliminated 67 rows and 67 columns.
Aggregator did 2 substitutions.
Reduced LP has 2 rows, 194 columns, and 130 nonzeros.
Presolve time = 0.00 sec. (0.14 ticks)
Initializing dual steep norms . . .

Iteration log . . .
Iteration:     1    Scaled infeas =             0.000000
Root relaxation solution time = 0.00 sec. (0.42 ticks)

        Nodes                                         Cuts/
   Node  Left     Objective  IInf  Best Integer    Best Bound    ItCnt     Gap

      0     0  -285864.7839    32                -285864.7839       24         
*     0+    0                        -8987.5981  -285864.7839              --- 
Found incumbent of value -8987.598081 after 1.86 sec. (357.92 ticks)

Starting condition for polishing reached (PolishAfterIntSol).
Starting solution polishing.

      0     0        cutoff          -8987.5981  -285864.7839       44     --- 
Elapsed time = 1.88 sec. (373.52 ticks, tree = 0.01 MB, solutions = 1)

Root node processing (before b&c):
  Real time             =    1.86 sec. (357.93 ticks)
Parallel b&c, 8 threads:
  Real time             =    0.02 sec. (15.69 ticks)
  Sync time (average)   =    0.01 sec.
  Wait time (average)   =    0.00 sec.
                          ------------
Total (root+branch&cut) =    1.88 sec. (373.62 ticks)

<<< solve


OBJECTIVE: -8987.598
X*: [9989.6 9988.1 9995.6 9988.1 9995.5 9988.1 9995.1 9988.2 9993.9 9988.1 9995.7
     9988.6 9995.7 9988.6 9995.2 9988.1 9995.2 9988.1 9995.1 9988.2 9995.6
     9988.1 9995.7 9988.2 9995.9 9988.1 9995.2 9988 9995.1 9988 9995.2 9988.2] Z*: [9983 10003 9997 10003 9997 10003 9996 10003 9994 10003 9997 10004 9997 10004
     9996 10003 9997 10003 9996 10003 9997 10003 9997 10003 9997 10003 9996
     10003 9996 10003 9996 10003]
f*:5765.132483042

<<< post process


<<< done

